language Essence 1.3

letting bot_end be [1509, 131, 1250, 1651, 1308, 841, 1648, 2273, 720, 1328, 2356, 1521, 650, 1249; int(1..14)]
letting bot_start be [1614, 1245, 84, 1161, 2443, 761, 1011, 1258, 2134, 1822, 56, 1564, 752, 1849; int(1..14)]
letting buffer_col be 2
letting buffer_row be 2
letting corridor_size be 1
letting n_shelves_col be 44
letting n_shelves_row be 7
letting shelf_col_size be 2
letting shelf_row_size be 1
